c read Graph
c width = 49
c time = 576 ms
c width = 4
c time = 712 ms
c width = 4
c time = 4031 ms
s td 56 5 60
b 1 1 2 16
b 2 2 3 16 17
b 3 13 14 29 30
b 4 3 16 17 31
b 5 13 29 30 45
b 6 31 32 47 48
b 7 44 45 58 59
b 8 3 4 5 19
b 9 5 6 7 21
b 10 7 8 9 23
b 11 9 10 11 25
b 12 11 12 13 27
b 13 3 17 18 31 32
b 14 3 18 31 32 48
b 15 3 18 32 33 48
b 16 3 18 19 33 48
b 17 3 5 19 33 48
b 18 5 19 33 34 48
b 19 5 19 20 34 48
b 20 5 20 34 48 49
b 21 5 20 34 35 49
b 22 5 20 21 35 49
b 23 5 7 21 35 49
b 24 7 21 35 49 50
b 25 7 21 35 36 50
b 26 7 21 22 36 50
b 27 7 22 36 50 51
b 28 7 22 36 37 51
b 29 7 22 23 37 51
b 30 7 9 23 37 51
b 31 9 23 37 51 52
b 32 9 23 37 38 52
b 33 9 23 24 38 52
b 34 9 24 38 52 53
b 35 9 24 38 39 53
b 36 9 24 25 39 53
b 37 9 11 25 39 53
b 38 11 25 39 53 54
b 39 11 25 39 40 54
b 40 11 25 26 40 54
b 41 11 26 40 54 55
b 42 11 26 40 41 55
b 43 11 26 27 41 55
b 44 11 13 27 41 55
b 45 13 27 41 55 56
b 46 13 27 41 42 56
b 47 13 27 28 42 56
b 48 13 28 42 56 57
b 49 13 28 42 43 57
b 50 13 28 29 43 57
b 51 13 29 43 45 57
b 52 29 43 44 45 57
b 53 43 44 45 57 58
b 54 45 59 60
b 55 31 46 47
b 56 14 15 30
1 2
2 4
3 56
3 5
4 13
5 51
6 55
6 14
7 54
7 53
8 17
9 23
10 30
11 37
12 44
13 14
14 15
15 16
16 17
17 18
18 19
19 20
20 21
21 22
22 23
23 24
24 25
25 26
26 27
27 28
28 29
29 30
30 31
31 32
32 33
33 34
34 35
35 36
36 37
37 38
38 39
39 40
40 41
41 42
42 43
43 44
44 45
45 46
46 47
47 48
48 49
49 50
50 51
51 52
52 53
